SCIP version 8.0.0 [precision: 8 byte] [memory: block] [mode: optimized] [LP solver: SoPlex 6.0.0] [GitHash: a740f0891e]
Copyright (C) 2002-2021 Konrad-Zuse-Zentrum fuer Informationstechnik Berlin (ZIB)

read problem </home/danilo/cbc-test-set/blp-ar98.mps.gz> ...

original problem has 16021 variables (15806 bin, 0 int, 0 impl, 215 cont) and 1128 constraints
solve problem ...

presolving:
   Deactivated symmetry handling methods, since SCIP was built without symmetry detector (SYM=none).
presolving (0 rounds: 0 fast, 0 medium, 0 exhaustive):
 0 deleted vars, 0 deleted constraints, 0 added constraints, 0 tightened bounds, 0 added holes, 0 changed sides, 0 changed coefficients
 0 implications, 0 cliques
presolved problem has 16021 variables (15806 bin, 0 int, 0 impl, 215 cont) and 1128 constraints
   1128 constraints of type <linear>
Presolving Time: 0.04

 time | node  | left  |LP iter|LP it/n|mem/heur|mdpt |vars |cons |rows |cuts |sepa|confs|strbr|  dualbound   | primalbound  |  gap   | compl. 
  3.1s|     1 |     0 |  4423 |     - |    96M |   0 |  16k|1420 |1420 |   0 |  0 |   0 |   0 | 5.891227e+03 |      --      |    Inf | unknown
  3.2s|     1 |     0 |  4423 |     - |    96M |   0 |  16k|1420 |1420 |   0 |  0 |   0 |   0 | 5.891227e+03 |      --      |    Inf | unknown
  4.0s|     1 |     0 |  4564 |     - |   116M |   0 |  16k|1420 |1452 |  32 |  1 |   0 |   0 | 5.926806e+03 |      --      |    Inf | unknown
  5.1s|     1 |     0 |  4668 |     - |   117M |   0 |  16k|1420 |1478 |  58 |  2 |   0 |   0 | 5.937171e+03 |      --      |    Inf | unknown
  6.5s|     1 |     0 |  4756 |     - |   117M |   0 |  16k|1420 |1504 |  84 |  3 |   0 |   0 | 5.942712e+03 |      --      |    Inf | unknown
  7.9s|     1 |     0 |  4837 |     - |   117M |   0 |  16k|1420 |1530 | 110 |  4 |   0 |   0 | 5.949984e+03 |      --      |    Inf | unknown
  9.4s|     1 |     0 |  4920 |     - |   119M |   0 |  16k|1420 |1551 | 131 |  5 |   0 |   0 | 5.955615e+03 |      --      |    Inf | unknown
 11.0s|     1 |     0 |  5003 |     - |   119M |   0 |  16k|1420 |1571 | 151 |  6 |   0 |   0 | 5.962872e+03 |      --      |    Inf | unknown
 12.5s|     1 |     0 |  5087 |     - |   120M |   0 |  16k|1420 |1591 | 171 |  7 |   0 |   0 | 5.976347e+03 |      --      |    Inf | unknown
 14.1s|     1 |     0 |  5174 |     - |   120M |   0 |  16k|1420 |1611 | 191 |  8 |   0 |   0 | 5.984225e+03 |      --      |    Inf | unknown
 15.7s|     1 |     0 |  5290 |     - |   120M |   0 |  16k|1420 |1627 | 207 |  9 |   0 |   0 | 5.986632e+03 |      --      |    Inf | unknown
 17.2s|     1 |     0 |  5359 |     - |   121M |   0 |  16k|1420 |1642 | 222 | 10 |   0 |   0 | 5.987616e+03 |      --      |    Inf | unknown
 18.7s|     1 |     0 |  5419 |     - |   122M |   0 |  16k|1420 |1374 | 236 | 11 |   0 |   0 | 5.992012e+03 |      --      |    Inf | unknown
 20.2s|     1 |     0 |  5483 |     - |   122M |   0 |  16k|1420 |1388 | 250 | 12 |   0 |   0 | 5.993323e+03 |      --      |    Inf | unknown
 21.7s|     1 |     0 |  5553 |     - |   122M |   0 |  16k|1420 |1401 | 263 | 13 |   0 |   0 | 5.994007e+03 |      --      |    Inf | unknown
 time | node  | left  |LP iter|LP it/n|mem/heur|mdpt |vars |cons |rows |cuts |sepa|confs|strbr|  dualbound   | primalbound  |  gap   | compl. 
 23.4s|     1 |     0 |  5780 |     - |   124M |   0 |  16k|1420 |1415 | 277 | 14 |   0 |   0 | 5.995830e+03 |      --      |    Inf | unknown
 24.9s|     1 |     0 |  5857 |     - |   124M |   0 |  16k|1420 |1429 | 291 | 15 |   0 |   0 | 5.995946e+03 |      --      |    Inf | unknown
 26.4s|     1 |     0 |  5953 |     - |   124M |   0 |  16k|1420 |1441 | 303 | 16 |   0 |   0 | 6.001068e+03 |      --      |    Inf | unknown
 27.9s|     1 |     0 |  6022 |     - |   124M |   0 |  16k|1420 |1449 | 311 | 17 |   0 |   0 | 6.004295e+03 |      --      |    Inf | unknown
 29.3s|     1 |     0 |  6083 |     - |   124M |   0 |  16k|1420 |1459 | 321 | 18 |   0 |   0 | 6.004728e+03 |      --      |    Inf | unknown
 30.8s|     1 |     0 |  6159 |     - |   124M |   0 |  16k|1420 |1470 | 332 | 19 |   0 |   0 | 6.005239e+03 |      --      |    Inf | unknown
 32.3s|     1 |     0 |  6244 |     - |   124M |   0 |  16k|1420 |1477 | 339 | 20 |   0 |   0 | 6.005430e+03 |      --      |    Inf | unknown
 33.8s|     1 |     0 |  6320 |     - |   124M |   0 |  16k|1420 |1489 | 351 | 21 |   0 |   0 | 6.005689e+03 |      --      |    Inf | unknown
 35.6s|     1 |     0 |  6566 |     - |   124M |   0 |  16k|1420 |1506 | 368 | 22 |   0 |   0 | 6.006467e+03 |      --      |    Inf | unknown
 37.2s|     1 |     0 |  6693 |     - |   126M |   0 |  16k|1420 |1518 | 382 | 23 |   0 |   0 | 6.006740e+03 |      --      |    Inf | unknown
 39.0s|     1 |     0 |  6880 |     - |   127M |   0 |  16k|1420 |1537 | 401 | 24 |   0 |   0 | 6.007174e+03 |      --      |    Inf | unknown
 40.6s|     1 |     0 |  7007 |     - |   128M |   0 |  16k|1420 |1549 | 413 | 25 |   0 |   0 | 6.007612e+03 |      --      |    Inf | unknown
 42.1s|     1 |     0 |  7061 |     - |   129M |   0 |  16k|1420 |1562 | 426 | 26 |   0 |   0 | 6.007711e+03 |      --      |    Inf | unknown
 43.6s|     1 |     0 |  7124 |     - |   129M |   0 |  16k|1420 |1574 | 438 | 27 |   0 |   0 | 6.007813e+03 |      --      |    Inf | unknown
 45.0s|     1 |     0 |  7182 |     - |   130M |   0 |  16k|1420 |1583 | 447 | 28 |   0 |   0 | 6.007902e+03 |      --      |    Inf | unknown
 time | node  | left  |LP iter|LP it/n|mem/heur|mdpt |vars |cons |rows |cuts |sepa|confs|strbr|  dualbound   | primalbound  |  gap   | compl. 
 46.4s|     1 |     0 |  7201 |     - |   130M |   0 |  16k|1420 |1591 | 455 | 29 |   0 |   0 | 6.007988e+03 |      --      |    Inf | unknown
 47.8s|     1 |     0 |  7223 |     - |   130M |   0 |  16k|1420 |1595 | 459 | 30 |   0 |   0 | 6.008021e+03 |      --      |    Inf | unknown
 49.3s|     1 |     0 |  7280 |     - |   130M |   0 |  16k|1420 |1602 | 466 | 31 |   0 |   0 | 6.008207e+03 |      --      |    Inf | unknown
 50.7s|     1 |     0 |  7301 |     - |   130M |   0 |  16k|1420 |1609 | 473 | 32 |   0 |   0 | 6.008240e+03 |      --      |    Inf | unknown
 50.7s|     1 |     0 |  7301 |     - |   130M |   0 |  16k|1497 |1686 | 473 | 32 |   0 |   0 | 6.008240e+03 |      --      |    Inf | unknown
 52.2s|     1 |     0 |  7327 |     - |   132M |   0 |  16k|1497 |1691 | 478 | 33 |   0 |   0 | 6.008403e+03 |      --      |    Inf | unknown
 53.6s|     1 |     0 |  7337 |     - |   132M |   0 |  16k|1497 |1694 | 481 | 34 |   0 |   0 | 6.008414e+03 |      --      |    Inf | unknown
 55.0s|     1 |     0 |  7362 |     - |   132M |   0 |  16k|1497 |1697 | 484 | 35 |   0 |   0 | 6.008426e+03 |      --      |    Inf | unknown
 56.4s|     1 |     0 |  7387 |     - |   133M |   0 |  16k|1497 |1700 | 487 | 36 |   0 |   0 | 6.008438e+03 |      --      |    Inf | unknown
 57.8s|     1 |     0 |  7405 |     - |   134M |   0 |  16k|1497 |1702 | 489 | 37 |   0 |   0 | 6.008447e+03 |      --      |    Inf | unknown
 59.2s|     1 |     0 |  7414 |     - |   134M |   0 |  16k|1497 |1704 | 491 | 38 |   0 |   0 | 6.008451e+03 |      --      |    Inf | unknown
 60.6s|     1 |     0 |  7434 |     - |   134M |   0 |  16k|1497 |1706 | 493 | 39 |   0 |   0 | 6.008455e+03 |      --      |    Inf | unknown
 62.0s|     1 |     0 |  7443 |     - |   134M |   0 |  16k|1497 |1707 | 494 | 40 |   0 |   0 | 6.008456e+03 |      --      |    Inf | unknown
 63.4s|     1 |     0 |  7459 |     - |   134M |   0 |  16k|1497 |1708 | 495 | 41 |   0 |   0 | 6.008462e+03 |      --      |    Inf | unknown
 64.8s|     1 |     0 |  7478 |     - |   134M |   0 |  16k|1497 |1710 | 497 | 42 |   0 |   0 | 6.008474e+03 |      --      |    Inf | unknown
 time | node  | left  |LP iter|LP it/n|mem/heur|mdpt |vars |cons |rows |cuts |sepa|confs|strbr|  dualbound   | primalbound  |  gap   | compl. 
 66.1s|     1 |     0 |  7490 |     - |   134M |   0 |  16k|1497 |1712 | 499 | 43 |   0 |   0 | 6.008477e+03 |      --      |    Inf | unknown
 77.1s|     1 |     2 |  7493 |     - |   136M |   0 |  16k|1497 |1712 | 499 | 43 |   0 |  22 | 6.012121e+03 |      --      |    Inf | unknown

SCIP Status        : solving was interrupted [node limit reached]
Solving Time (sec) : 77.14
Solving Nodes      : 1
Primal Bound       : +1.00000000000000e+20 (0 solutions)
Dual Bound         : +6.01212127899537e+03
Gap                : infinite
primal solution:
no solution available
Statistics:
SCIP Status        : solving was interrupted [node limit reached]
Total Time         :      77.39
  solving          :      77.14
  presolving       :       0.04 (included in solving)
  reading          :       0.25
  copying          :       0.00 (0 times copied the problem)
Original Problem   :
  Problem name     : blp-ar98
  Variables        : 16021 (15806 binary, 0 integer, 0 implicit integer, 215 continuous)
  Constraints      : 1128 initial, 1128 maximal
  Objective        : minimize, 1 non-zeros (abs.min = 1, abs.max = 1)
Presolved Problem  :
  Problem name     : t_blp-ar98
  Variables        : 16021 (15806 binary, 0 integer, 0 implicit integer, 215 continuous)
  Constraints      : 1128 initial, 1497 maximal
  Objective        : minimize, 1 non-zeros (abs.min = 1, abs.max = 1)
  Nonzeros         : 200601 constraint, 0 clique table
Presolvers         :   ExecTime  SetupTime  Calls  FixedVars   AggrVars   ChgTypes  ChgBounds   AddHoles    DelCons    AddCons   ChgSides   ChgCoefs
  boundshift       :       0.00       0.00      0          0          0          0          0          0          0          0          0          0
  convertinttobin  :       0.00       0.00      0          0          0          0          0          0          0          0          0          0
  domcol           :       0.00       0.00      0          0          0          0          0          0          0          0          0          0
  dualagg          :       0.00       0.00      0          0          0          0          0          0          0          0          0          0
  dualcomp         :       0.00       0.00      0          0          0          0          0          0          0          0          0          0
  dualinfer        :       0.00       0.00      0          0          0          0          0          0          0          0          0          0
  dualsparsify     :       0.00       0.00      0          0          0          0          0          0          0          0          0          0
  gateextraction   :       0.00       0.00      0          0          0          0          0          0          0          0          0          0
  implics          :       0.00       0.00      0          0          0          0          0          0          0          0          0          0
  inttobinary      :       0.00       0.00      0          0          0          0          0          0          0          0          0          0
  qpkktref         :       0.00       0.00      0          0          0          0          0          0          0          0          0          0
  redvub           :       0.00       0.00      0          0          0          0          0          0          0          0          0          0
  sparsify         :       0.00       0.00      0          0          0          0          0          0          0          0          0          0
  stuffing         :       0.00       0.00      0          0          0          0          0          0          0          0          0          0
  trivial          :       0.00       0.00      0          0          0          0          0          0          0          0          0          0
  tworowbnd        :       0.00       0.00      0          0          0          0          0          0          0          0          0          0
  dualfix          :       0.00       0.00      0          0          0          0          0          0          0          0          0          0
  genvbounds       :       0.00       0.00      0          0          0          0          0          0          0          0          0          0
  probing          :       0.00       0.00      0          0          0          0          0          0          0          0          0          0
  pseudoobj        :       0.00       0.00      0          0          0          0          0          0          0          0          0          0
  symmetry         :       0.00       0.00      0          0          0          0          0          0          0          0          0          0
  vbounds          :       0.00       0.00      0          0          0          0          0          0          0          0          0          0
  linear           :       0.00       0.11      0          0          0          0          0          0          0          0          0          0
  benders          :       0.00       0.00      0          0          0          0          0          0          0          0          0          0
  components       :       0.00       0.00      0          0          0          0          0          0          0          0          0          0
  root node        :          -          -      -          0          -          -         83          -          -          -          -          -
Constraints        :     Number  MaxNumber  #Separate #Propagate    #EnfoLP    #EnfoRelax  #EnfoPS    #Check   #ResProp    Cutoffs    DomReds       Cuts    Applied      Conss   Children
  benderslp        :          0          0          0          0          1          0          0          1          0          0          0          0          0          0          0
  integral         :          0          0          0          0          1          0          0          1          0          0          0          0          0          0          2
  linear           :       1128+      1497         43         71          0          0          0          0          0          0         82       3218        499          0          0
  benders          :          0          0          0          0          0          0          0          0          0          0          0          0          0          0          0
  countsols        :          0          0          0          0          0          0          0          0          0          0          0          0          0          0          0
  components       :          0          0          0          0          0          0          0          0          0          0          0          0          0          0          0
Constraint Timings :  TotalTime  SetupTime   Separate  Propagate     EnfoLP     EnfoPS     EnfoRelax   Check    ResProp    SB-Prop
  benderslp        :       0.00       0.00       0.00       0.00       0.00       0.00       0.00       0.00       0.00       0.00
  integral         :      10.99       0.00       0.00       0.00      10.99       0.00       0.00       0.00       0.00       0.00
  linear           :      58.08       0.11      57.83       0.14       0.00       0.00       0.00       0.00       0.00       0.00
  benders          :       0.00       0.00       0.00       0.00       0.00       0.00       0.00       0.00       0.00       0.00
  countsols        :       0.00       0.00       0.00       0.00       0.00       0.00       0.00       0.00       0.00       0.00
  components       :       0.00       0.00       0.00       0.00       0.00       0.00       0.00       0.00       0.00       0.00
Propagators        : #Propagate   #ResProp    Cutoffs    DomReds
  dualfix          :          3          0          0          0
  genvbounds       :          0          0          0          0
  nlobbt           :          0          0          0          0
  obbt             :          0          0          0          0
  probing          :          0          0          0          0
  pseudoobj        :          1          0          0          1
  redcost          :          0          0          0          0
  rootredcost      :          0          0          0          0
  symmetry         :          0          0          0          0
  vbounds          :          0          0          0          0
Propagator Timings :  TotalTime  SetupTime   Presolve  Propagate    ResProp    SB-Prop
  dualfix          :       0.00       0.00       0.00       0.00       0.00       0.00
  genvbounds       :       0.00       0.00       0.00       0.00       0.00       0.00
  nlobbt           :       0.00       0.00       0.00       0.00       0.00       0.00
  obbt             :       0.00       0.00       0.00       0.00       0.00       0.00
  probing          :       0.00       0.00       0.00       0.00       0.00       0.00
  pseudoobj        :       0.00       0.00       0.00       0.00       0.00       0.00
  redcost          :       0.00       0.00       0.00       0.00       0.00       0.00
  rootredcost      :       0.00       0.00       0.00       0.00       0.00       0.00
  symmetry         :       0.00       0.00       0.00       0.00       0.00       0.00
  vbounds          :       0.01       0.00       0.00       0.01       0.00       0.00
Conflict Analysis  :       Time      Calls    Success    DomReds  Conflicts   Literals    Reconvs ReconvLits   Dualrays   Nonzeros   LP Iters   (pool size: [--,--])
  propagation      :       0.00          0          0          -          0        0.0          0        0.0          -          -          -
  infeasible LP    :       0.00          0          0          -          0        0.0          0        0.0          0        0.0          0
  bound exceed. LP :       0.00          0          0          -          0        0.0          0        0.0          0        0.0          0
  strong branching :       0.00          0          0          -          0        0.0          0        0.0          -          -          0
  pseudo solution  :       0.00          0          0          -          0        0.0          0        0.0          -          -          -
  applied globally :       0.00          -          -          0          0        0.0          -          -          0          -          -
  applied locally  :          -          -          -          0          0        0.0          -          -          0          -          -
Separators         :   ExecTime  SetupTime      Calls    Cutoffs    DomReds       Cuts    Applied      Conss
  cut pool         :       0.00                     0          -          -          0          -          -    (maximal pool size: 0)
  aggregation      :       0.00       0.00          0          0          0          0          0          0
  > cmir           :          -          -          -          -          -          -          0          -
  > flowcover      :          -          -          -          -          -          -          0          -
  > knapsackcover  :          -          -          -          -          -          -          0          -
  cgmip            :       0.00       0.00          0          0          0          0          0          0
  clique           :       0.00       0.00          0          0          0          0          0          0
  closecuts        :       0.00       0.00          0          0          0          0          0          0
  convexproj       :       0.00       0.00          0          0          0          0          0          0
  disjunctive      :       0.00       0.00          0          0          0          0          0          0
  eccuts           :       0.00       0.00          0          0          0          0          0          0
  gauge            :       0.00       0.00          0          0          0          0          0          0
  gmi              :       0.00       0.00          0          0          0          0          0          0
  gomory           :       0.00       0.00          0          0          0          0          0          0
  > gomorymi       :          -          -          -          -          -          -          0          -
  > strongcg       :          -          -          -          -          -          -          0          -
  impliedbounds    :       0.00       0.00          0          0          0          0          0          0
  interminor       :       0.00       0.00          0          0          0          0          0          0
  intobj           :       0.00       0.00          0          0          0          0          0          0
  mcf              :       0.00       0.00          0          0          0          0          0          0
  minor            :       0.00       0.00          0          0          0          0          0          0
  mixing           :       0.00       0.00          0          0          0          0          0          0
  oddcycle         :       0.00       0.00          0          0          0          0          0          0
  rapidlearning    :       0.00       0.00          0          0          0          0          0          0
  rlt              :       0.00       0.00          0          0          0          0          0          0
  zerohalf         :       0.00       0.00          0          0          0          0          0          0
Cutselectors       :   ExecTime  SetupTime
  hybrid           :       0.00       0.00
Pricers            :   ExecTime  SetupTime      Calls       Vars
  problem variables:       0.00          -          0          0
Branching Rules    :   ExecTime  SetupTime   BranchLP  BranchExt   BranchPS    Cutoffs    DomReds       Cuts      Conss   Children
  allfullstrong    :       0.00       0.00          0          0          0          0          0          0          0          0
  cloud            :       0.00       0.00          0          0          0          0          0          0          0          0
  distribution     :       0.00       0.00          0          0          0          0          0          0          0          0
  fullstrong       :       0.00       0.00          0          0          0          0          0          0          0          0
  inference        :       0.00       0.00          0          0          0          0          0          0          0          0
  leastinf         :       0.00       0.00          0          0          0          0          0          0          0          0
  lookahead        :       0.00       0.00          0          0          0          0          0          0          0          0
  mostinf          :       0.00       0.00          0          0          0          0          0          0          0          0
  multaggr         :       0.00       0.00          0          0          0          0          0          0          0          0
  nodereopt        :       0.00       0.00          0          0          0          0          0          0          0          0
  pscost           :       0.00       0.00          0          0          0          0          0          0          0          0
  random           :       0.00       0.00          0          0          0          0          0          0          0          0
  relpscost        :      10.99       0.00          1          0          0          0          0          0          0          2
  vanillafullstrong:       0.00       0.00          0          0          0          0          0          0          0          0
Primal Heuristics  :   ExecTime  SetupTime      Calls      Found       Best
  LP solutions     :       0.00          -          -          0          0
  relax solutions  :       0.00          -          -          0          0
  pseudo solutions :       0.00          -          -          0          0
  strong branching :       0.00          -          -          0          0
  actconsdiving    :       0.00       0.00          0          0          0
  adaptivediving   :       0.00       0.00          0          0          0
  alns             :       0.00       0.00          0          0          0
  bound            :       0.00       0.00          0          0          0
  clique           :       0.00       0.00          0          0          0
  coefdiving       :       0.00       0.00          0          0          0
  completesol      :       0.00       0.00          0          0          0
  conflictdiving   :       0.00       0.00          0          0          0
  crossover        :       0.00       0.00          0          0          0
  dins             :       0.00       0.00          0          0          0
  distributiondivin:       0.00       0.00          0          0          0
  dps              :       0.00       0.00          0          0          0
  dualval          :       0.00       0.00          0          0          0
  farkasdiving     :       0.00       0.00          0          0          0
  feaspump         :       0.00       0.00          0          0          0
  fixandinfer      :       0.00       0.00          0          0          0
  fracdiving       :       0.00       0.00          0          0          0
  gins             :       0.00       0.00          0          0          0
  guideddiving     :       0.00       0.00          0          0          0
  indicator        :       0.00       0.00          0          0          0
  intdiving        :       0.00       0.00          0          0          0
  intshifting      :       0.00       0.00          0          0          0
  linesearchdiving :       0.00       0.00          0          0          0
  localbranching   :       0.00       0.00          0          0          0
  locks            :       0.00       0.00          0          0          0
  lpface           :       0.00       0.00          0          0          0
  mpec             :       0.00       0.00          0          0          0
  multistart       :       0.00       0.00          0          0          0
  mutation         :       0.00       0.00          0          0          0
  nlpdiving        :       0.00       0.00          0          0          0
  objpscostdiving  :       0.00       0.00          0          0          0
  octane           :       0.00       0.00          0          0          0
  ofins            :       0.00       0.00          0          0          0
  oneopt           :       0.00       0.00          0          0          0
  padm             :       0.00       0.00          0          0          0
  proximity        :       0.00       0.00          0          0          0
  pscostdiving     :       0.00       0.00          0          0          0
  randrounding     :       0.00       0.00          0          0          0
  rens             :       0.00       0.00          0          0          0
  reoptsols        :       0.00       0.00          0          0          0
  repair           :       0.00       0.00          0          0          0
  rins             :       0.00       0.00          0          0          0
  rootsoldiving    :       0.00       0.00          0          0          0
  rounding         :       0.00       0.00          0          0          0
  shiftandpropagate:       0.00       0.00          0          0          0
  shifting         :       0.00       0.00          0          0          0
  simplerounding   :       0.00       0.00          0          0          0
  subnlp           :       0.00       0.00          0          0          0
  trivial          :       0.00       0.00          0          0          0
  trivialnegation  :       0.00       0.00          0          0          0
  trustregion      :       0.00       0.00          0          0          0
  trysol           :       0.00       0.00          0          0          0
  twoopt           :       0.00       0.00          0          0          0
  undercover       :       0.00       0.00          0          0          0
  vbounds          :       0.00       0.00          0          0          0
  veclendiving     :       0.00       0.00          0          0          0
  zeroobj          :       0.00       0.00          0          0          0
  zirounding       :       0.00       0.00          0          0          0
  other solutions  :          -          -          -          0          -
Diving (single)    :      Calls      Nodes   LP Iters Backtracks  Conflicts   MinDepth   MaxDepth   AvgDepth  RoundSols  NLeafSols  MinSolDpt  MaxSolDpt  AvgSolDpt
  actconsdiving    :          0          -          -          -          -          -          -          -          -          -          -          -          -
  coefdiving       :          0          -          -          -          -          -          -          -          -          -          -          -          -
  conflictdiving   :          0          -          -          -          -          -          -          -          -          -          -          -          -
  distributiondivin:          0          -          -          -          -          -          -          -          -          -          -          -          -
  farkasdiving     :          0          -          -          -          -          -          -          -          -          -          -          -          -
  fracdiving       :          0          -          -          -          -          -          -          -          -          -          -          -          -
  guideddiving     :          0          -          -          -          -          -          -          -          -          -          -          -          -
  linesearchdiving :          0          -          -          -          -          -          -          -          -          -          -          -          -
  pscostdiving     :          0          -          -          -          -          -          -          -          -          -          -          -          -
  veclendiving     :          0          -          -          -          -          -          -          -          -          -          -          -          -
Diving (adaptive)  :      Calls      Nodes   LP Iters Backtracks  Conflicts   MinDepth   MaxDepth   AvgDepth  RoundSols  NLeafSols  MinSolDpt  MaxSolDpt  AvgSolDpt
  actconsdiving    :          0          -          -          -          -          -          -          -          -          -          -          -          -
  coefdiving       :          0          -          -          -          -          -          -          -          -          -          -          -          -
  conflictdiving   :          0          -          -          -          -          -          -          -          -          -          -          -          -
  distributiondivin:          0          -          -          -          -          -          -          -          -          -          -          -          -
  farkasdiving     :          0          -          -          -          -          -          -          -          -          -          -          -          -
  fracdiving       :          0          -          -          -          -          -          -          -          -          -          -          -          -
  guideddiving     :          0          -          -          -          -          -          -          -          -          -          -          -          -
  linesearchdiving :          0          -          -          -          -          -          -          -          -          -          -          -          -
  pscostdiving     :          0          -          -          -          -          -          -          -          -          -          -          -          -
  veclendiving     :          0          -          -          -          -          -          -          -          -          -          -          -          -
Neighborhoods      :      Calls  SetupTime  SolveTime SolveNodes       Sols       Best       Exp3  EpsGreedy        UCB TgtFixRate  Opt  Inf Node Stal  Sol  Usr Othr Actv
  rens             :          0       0.00       0.00          0          0          0    0.00000   -1.00000    1.00000      0.900    0    0    0    0    0    0    0    1
  rins             :          0       0.00       0.00          0          0          0    0.00000   -1.00000    1.00000      0.900    0    0    0    0    0    0    0    1
  mutation         :          0       0.00       0.00          0          0          0    0.00000   -1.00000    1.00000      0.900    0    0    0    0    0    0    0    1
  localbranching   :          0       0.00       0.00          0          0          0    0.00000   -1.00000    1.00000      0.900    0    0    0    0    0    0    0    1
  crossover        :          0       0.00       0.00          0          0          0    0.00000   -1.00000    1.00000      0.900    0    0    0    0    0    0    0    1
  proximity        :          0       0.00       0.00          0          0          0    0.00000   -1.00000    1.00000      0.900    0    0    0    0    0    0    0    1
  zeroobjective    :          0       0.00       0.00          0          0          0    0.00000   -1.00000    1.00000      0.900    0    0    0    0    0    0    0    1
  dins             :          0       0.00       0.00          0          0          0    0.00000   -1.00000    1.00000      0.900    0    0    0    0    0    0    0    1
  trustregion      :          0       0.00       0.00          0          0          0    0.00000   -1.00000    1.00000      0.900    0    0    0    0    0    0    0    0
LP                 :       Time      Calls Iterations  Iter/call   Iter/sec  Time-0-It Calls-0-It    ItLimit
  primal LP        :       0.02          2          0       0.00       0.00       0.02          2
  dual LP          :       6.78         46       7490     170.23    1105.03       0.02          2
  lex dual LP      :       0.00          0          0       0.00          -
  barrier LP       :       0.00          0          0       0.00          -       0.00          0
  resolve instable :       0.00          0          0       0.00          -
  diving/probing LP:       0.02          1          3       3.00     190.56
  strong branching :      10.66         22       6400     290.91     600.42          -          -          5
    (at root node) :          -         22       6400     290.91          -
  conflict analysis:       0.00          0          0       0.00          -
B&B Tree           :
  number of runs   :          1
  nodes            :          1 (1 internal, 0 leaves)
  feasible leaves  :          0
  infeas. leaves   :          0
  objective leaves :          0
  nodes (total)    :          1 (1 internal, 0 leaves)
  nodes left       :          2
  max depth        :          0
  max depth (total):          0
  backtracks       :          0 (0.0%)
  early backtracks :          0 (0.0%)
  nodes exc. ref.  :          0 (0.0%)
  delayed cutoffs  :          0
  repropagations   :          0 (0 domain reductions, 0 cutoffs)
  avg switch length:       1.00
  switching time   :       0.00
Estim. Tree Size   :         -1
Estimation Tree    : 3 nodes (1 visited, 1 internal, 0 leaves, 2 open), weight: 0.0000 completed 0.0000
Estimations        :      estim      value      trend resolution     smooth
  wbe              :         -1          -          -          -          -
  tree-profile     :         -1          -          -          -          -
  gap              :         -1    0.00000                     1           
  tree-weight      :         -1    0.00000                     1           
  leaf-frequency   :         -1   -0.50000                     1           
  ssg              :         -1    1.00000                     1           
  open-nodes       :         -1    2.00000                     1           
Root Node          :
  First LP value   : +5.89122658029485e+03
  First LP Iters   :       4423 (1683.25 Iter/sec)
  First LP Time    :       2.63
  Final Dual Bound : +6.01212127899537e+03
  Final Root Iters :       7490
  Root LP Estimate : +6.01783132961189e+03
Solution           :
  Solutions found  :          0 (0 improvements)
  Primal Bound     :          -
  Dual Bound       : +6.01212127899537e+03
  Gap              :   infinite
Integrals          :      Total       Avg%
  primal-dual      :    7714.09     100.00
  primal-ref       :          -          - (not evaluated)
  dual-ref         :          -          - (not evaluated)
